201 5
10 10 10 10 10 

0 0 0 0 0 0 5 2 14 26 38 50 
0 0 0 0 0 0 3 3 6 8 
2 0 1 0 0 0 2 4 58 
2 0 2 0 0 0 1 5 
5 0 4 0 0 0 2 10 7 
7 0 1 0 0 0 1 7 
3 0 1 0 0 0 1 9 
8 0 2 0 0 0 1 9 
9 0 3 0 0 0 1 11 
5 0 3 0 0 0 1 11 
5 0 3 0 0 0 1 12 
1 0 5 0 0 0 1 13 
0 0 0 0 0 0 1 62 
0 0 0 0 0 0 1 15 
6 0 0 0 1 0 2 18 16 
4 0 0 0 2 0 1 17 
6 0 0 0 1 0 2 21 19 
6 0 0 0 2 0 3 21 19 77 
4 0 0 0 4 0 1 20 
10 0 0 0 4 0 2 24 22 
6 0 0 0 2 0 2 24 22 
1 0 0 0 2 0 1 23 
10 0 0 0 4 0 1 25 
7 0 0 0 3 0 1 25 
0 0 0 0 0 0 1 62 
0 0 0 0 0 0 2 27 188 
4 0 0 1 0 0 1 28 
5 0 0 4 0 0 1 29 
2 0 0 4 0 0 1 30 
4 0 0 2 0 0 3 36 33 31 
9 0 0 3 0 0 1 32 
2 0 0 1 0 0 2 35 34 
5 0 0 2 0 0 2 35 34 
4 0 0 1 0 0 1 37 
7 0 0 5 0 0 1 37 
2 0 0 2 0 0 1 37 
0 0 0 0 0 0 1 62 
0 0 0 0 0 0 2 39 40 
7 1 0 0 0 0 2 47 41 
8 4 0 0 0 0 3 48 47 44 
1 2 0 0 0 0 1 42 
10 2 0 0 0 0 1 43 
3 2 0 0 0 0 2 44 109 
6 2 0 0 0 0 1 45 
7 2 0 0 0 0 1 46 
1 1 0 0 0 0 1 49 
8 3 0 0 0 0 1 49 
1 6 0 0 0 0 1 49 
0 0 0 0 0 0 1 62 
0 0 0 0 0 0 3 51 55 57 
4 0 0 0 1 0 1 52 
2 0 0 0 4 0 1 53 
4 0 0 0 3 0 2 60 54 
1 0 0 0 2 0 1 56 
1 0 0 0 3 0 3 60 59 183 
10 0 0 0 2 0 1 58 
4 0 0 0 3 0 1 58 
2 0 0 0 2 0 1 59 
10 0 0 0 4 0 1 61 
8 0 0 0 1 0 1 61 
0 0 0 0 0 0 1 62 
0 0 0 0 0 0 4 63 85 107 129 
0 0 0 0 0 0 1 64 
10 1 0 0 1 0 2 78 65 
4 5 0 0 2 0 2 83 66 
8 2 0 0 2 0 2 67 109 
3 2 0 0 1 0 2 82 68 
6 4 0 0 2 0 1 69 
6 1 0 0 3 0 1 70 
7 4 0 0 1 0 2 81 71 
9 5 0 0 1 0 1 72 
5 2 0 0 3 0 2 80 73 
8 4 0 0 5 0 1 74 
1 1 0 0 1 0 1 75 
2 2 0 0 2 0 1 76 
2 2 0 0 1 0 1 77 
5 3 0 0 3 0 1 79 
8 2 0 0 3 0 1 80 
10 2 0 0 5 0 1 84 
6 2 0 0 3 0 1 84 
1 2 0 0 3 0 1 84 
2 3 0 0 4 0 1 84 
2 1 0 0 4 0 1 84 
0 0 0 0 0 0 1 165 
0 0 0 0 0 0 2 86 88 
3 0 1 0 0 1 2 91 87 
10 0 3 0 0 3 1 89 
10 0 3 0 0 3 1 89 
9 0 2 0 0 4 2 90 158 
8 0 2 0 0 2 1 92 
8 0 2 0 0 6 1 92 
5 0 4 0 0 1 2 97 93 
8 0 2 0 0 3 2 103 94 
7 0 2 0 0 2 1 95 
5 0 1 0 0 4 1 96 
1 0 3 0 0 2 2 105 98 
8 0 2 0 0 1 2 105 99 
3 0 4 0 0 2 1 99 
6 0 3 0 0 2 1 100 
1 0 3 0 0 4 1 101 
9 0 4 0 0 1 1 102 
2 0 2 0 0 2 1 104 
2 0 3 0 0 2 1 104 
10 0 2 0 0 4 1 106 
5 0 2 0 0 1 1 106 
0 0 0 0 0 0 1 165 
0 0 0 0 0 0 4 108 123 127 179 
6 1 1 0 0 0 2 126 109 
4 1 2 0 0 0 1 110 
9 6 4 0 0 0 1 111 
8 2 4 0 0 0 1 112 
8 2 2 0 0 0 2 125 113 
6 4 3 0 0 0 2 120 114 
7 1 2 0 0 0 1 115 
3 3 2 0 0 0 1 116 
8 4 2 0 0 0 1 117 
6 1 3 0 0 0 1 118 
2 2 3 0 0 0 1 119 
6 2 3 0 0 0 1 121 
9 1 5 0 0 0 1 121 
1 2 3 0 0 0 1 122 
3 2 2 0 0 0 1 124 
8 3 2 0 0 0 1 124 
2 5 1 0 0 0 1 128 
8 1 3 0 0 0 1 128 
4 3 1 0 0 0 1 128 
4 4 2 0 0 0 1 128 
0 0 0 0 0 0 1 165 
0 0 0 0 0 0 3 130 134 136 
9 0 0 1 0 0 2 139 131 
2 0 0 2 0 0 1 132 
4 0 0 3 0 0 1 133 
6 0 0 2 0 0 1 135 
2 0 0 4 0 0 2 139 138 
1 0 0 1 0 0 2 137 176 
5 0 0 4 0 0 1 137 
2 0 0 3 0 0 1 138 
9 0 0 2 0 0 1 140 
7 0 0 3 0 0 1 140 
0 0 0 0 0 0 2 141 153 
0 0 0 0 0 0 4 142 145 150 151 
8 0 1 0 0 0 2 143 162 
10 0 1 0 0 0 1 144 
3 0 3 0 0 0 1 146 
7 0 5 0 0 0 1 146 
9 0 2 0 0 0 1 147 
8 0 1 0 0 0 1 148 
3 0 2 0 0 0 1 149 
10 0 2 0 0 0 1 152 
8 0 3 0 0 0 1 152 
3 0 5 0 0 0 1 152 
0 0 0 0 0 0 1 165 
0 0 0 0 0 0 2 154 156 
1 1 0 0 0 0 1 155 
6 2 0 0 0 0 3 159 157 175 
1 2 0 0 0 0 2 159 157 
6 1 0 0 0 0 1 158 
3 1 0 0 0 0 1 160 
3 5 0 0 0 0 1 160 
4 2 0 0 0 0 1 161 
9 3 0 0 0 0 2 163 162 
5 4 0 0 0 0 1 164 
1 4 0 0 0 0 1 164 
0 0 0 0 0 0 1 165 
0 0 0 0 0 0 2 166 178 
0 0 0 0 0 0 2 167 168 
2 0 0 0 0 1 2 171 169 
3 0 0 0 0 2 2 171 170 
6 0 0 0 0 2 1 170 
7 0 0 0 0 2 2 173 172 
1 0 0 0 0 3 2 172 182 
7 0 0 0 0 4 1 174 
7 0 0 0 0 3 1 174 
10 0 0 0 0 2 1 175 
3 0 0 0 0 3 1 176 
9 0 0 0 0 3 1 177 
0 0 0 0 0 0 1 190 
0 0 0 0 0 0 3 179 184 188 
1 0 0 1 0 0 2 186 180 
2 0 0 5 0 0 1 181 
6 0 0 1 0 0 1 182 
7 0 0 3 0 0 1 183 
1 0 0 3 0 0 1 185 
2 0 0 2 0 0 1 185 
9 0 0 3 0 0 1 187 
3 0 0 1 0 0 1 187 
10 0 0 5 0 0 1 189 
2 0 0 1 0 0 1 189 
0 0 0 0 0 0 1 190 
0 0 0 0 0 0 1 191 
4 0 0 0 1 0 1 192 
7 0 0 0 1 0 1 193 
2 0 0 0 3 0 2 195 194 
10 0 0 0 3 0 2 197 196 
10 0 0 0 3 0 2 197 196 
9 0 0 0 1 0 2 199 198 
9 0 0 0 5 0 1 198 
10 0 0 0 4 0 1 200 
6 0 0 0 3 0 1 200 
1 0 0 0 1 0 1 201 
0 0 0 0 0 0 0 
